50
14445

188 783
429 930
512 869
397 778
732 243
20 890
297 64
274 148
259 503
791 973
44 318
59 799
194 796
167 755
133 194
302 63
455 66
82 384
623 98
58 356
804 973
487 859
552 774
919 917
373 234
765 115
980 393
886 721
974 864
430 485
775 680
674 887
216 917
811 206
723 374
341 587
418 740
279 204
79 407
474 823
304 326
648 419
622 389
569 850
165 574
418 376
684 16
218 555
747 580
349 696
